language Essence 1.3

letting codeWordLength be 31
letting dist be
        function((1, 1) --> 0, (1, 2) --> 7, (1, 3) --> 5, (1, 4) --> 6, (2, 1) --> 7, (2, 2) --> 0, (2, 3) --> 5,
                 (2, 4) --> 2, (3, 1) --> 5, (3, 2) --> 5, (3, 3) --> 0, (3, 4) --> 1, (4, 1) --> 6, (4, 2) --> 2,
                 (4, 3) --> 1, (4, 4) --> 0)
letting maxDist be 7
letting minDist be 34
letting nbCharacter be 4
letting numOfCodeWords be 31
